results/res_prop_muc/res_Cimatti_mathsat_cores/QF_LRA/tgc_io-safe-3.smt.smt2.res
unsat
( c101
  c20
  c268
  c272
  c274
  c278
  c279
  c294
  c297
  c298
  c31
  c315
  c325
  c334
  c336
  c350
  c351
  c361
  c380
  c396
  c406
  c418
  c430
  c50
  c512
  c516
  c520
  c526
  c527
  c545
  c546
  c563
  c573
  c581
  c585
  c587
  c588
  c6
  c600
  c616
  c635
  c645
  c662
  c663
  c664
  c67
  c7
  c729
  c754
  c755
  c77
  c86
  c88
  c9 )
